<number of tasks>
50

<cycle time>
1000

<order strength>
0.195


<task times>
1 38
2 299
3 181
4 22
5 197
6 78
7 195
8 70
9 49
10 165
11 116
12 71
13 152
14 145
15 183
16 117
17 77
18 61
19 149
20 22
21 80
22 34
23 258
24 182
25 34
26 83
27 92
28 92
29 115
30 307
31 186
32 310
33 71
34 303
35 290
36 186
37 205
38 82
39 184
40 98
41 33
42 179
43 125
44 159
45 79
46 67
47 55
48 68
49 102
50 129

<precedence relations>
1,13
3,27
4,12
4,14
5,8
5,9
5,10
5,11
5,37
6,19
9,19
10,16
11,35
12,15
12,17
12,18
13,41
15,24
16,47
17,21
18,20
18,43
19,22
19,23
20,28
22,25
22,27
24,26
24,29
25,30
25,31
26,36
26,38
27,35
29,31
29,32
29,33
29,34
29,37
30,41
30,43
30,44
32,39
33,41
33,42
34,40
39,45
39,50
40,48
41,46
41,47
41,50
42,45
42,49

<end>
